(set-logic ALL)
(declare-fun i1 () Int)
(declare-fun i5 () Int)
(declare-fun it1 () Int)
(declare-fun it2 () Int)
(declare-fun i2 () Int)
(declare-fun i3 () Int)
(declare-fun it3 () Int)
(declare-fun i4 () Int)
(declare-fun it4 () Int)
(declare-fun it5 () Int)
(declare-fun it22 () Int)
(declare-fun it23 () Int)
(declare-fun it24 () Int)
(declare-fun it25 () Int)
(declare-fun it26 () Int)
(declare-fun it11 () Int)
(assert (and (> i5 0) (= (+ i1 (- 1)) 0)))
(assert (= (+ it1 (- 2)) 0))
(assert (= (+ (* i2 (- 1)) it2 (- 1)) 0))
(assert (= (+ it3 (* i3 (- 1))) 0))
(assert (= (+ it4 (* i4 (- 1))) 0))
(assert (= (+ (* i5 (- 1)) it5) 0))
(assert (let ((a!1 (< (+ (exp it5 5) (+ 0 (* it4 (- 1))) (exp it3 2)) (+ 0 0))))
  (and (> it3 0) a!1 (= (+ it1 (- 2)) 0))))
(assert (= (+ it22 (- 2)) 0))
(assert (= (+ it23 (* it2 (- 1)) (- 1)) 0))
(assert (= (+ (* it3 2) it24) 0))
(assert (let ((a!1 (+ (+ 0 (+ it25 (* it4 (- 3)))) (* (exp it5 3) (+ 0 2)))))
  (= a!1 (+ 0 0))))
(assert (= (+ it26 (* it5 (- 1))) 0))
(assert (let ((a!1 (> (+ (* (exp it26 5) (+ 0 (- 1)))
                 (* (exp it24 2) (+ 0 (- 1)))
                 (+ 0 it25))
              (+ 0 0)))
      (a!2 (* (exp (exp 4 (+ it11 (- 1))) (+ 0 2)) (exp it24 2)))
      (a!3 (* (* (exp 9 (+ it11 (- 1))) (exp it26 3)) (+ 0 (- 1))))
      (a!5 (* (* (exp 9 (+ it11 (- 1))) (+ 0 it25)) (+ 0 3)))
      (a!6 (* (* (exp 9 (+ it11 (- 1))) (exp it26 3)) (+ 0 (- 3))))
      (a!8 (> (+ (* (exp it26 5) (+ 0 (- 1)))
                 (* (exp it24 2) (+ 0 (- 4)))
                 (+ 0 (* it25 3))
                 (* (exp it26 3) (+ 0 (- 2))))
              (+ 0 0))))
(let ((a!4 (+ (* (exp 9 (+ it11 (- 1))) (+ 0 it25))
              (* (exp it26 5) (+ 0 (- 1)))
              (* a!2 (+ 0 (- 1)))
              a!3
              (exp it26 3)))
      (a!7 (> (+ a!5
                 (* (exp it26 5) (+ 0 (- 1)))
                 (* a!2 (+ 0 (- 4)))
                 a!6
                 (exp it26 3))
              (+ 0 0))))
  (and (> (* it24 (- 1)) 0)
       (>= (+ it22 (- 2)) 0)
       a!1
       (> (* it24 (- 2)) 0)
       (>= (+ (* it22 (- 1)) 2) 0)
       (> a!4 (+ 0 0))
       a!7
       a!8
       (>= (+ it11 (- 1)) 0)))))
(check-sat)
